c 
p cnf 10 40
8 -2 -9 0
-8 -10 -7 0
10 2 3 0
-10 -8 2 0
-8 5 -1 0
-9 -4 -8 0
-10 -3 2 0
6 10 3 0
10 -9 3 0
3 -1 -9 0
-10 -2 -6 0
6 1 3 0
-8 -2 6 0
5 -2 8 0
-7 1 2 0
-7 8 -4 0
-7 -8 -1 0
1 -2 5 0
1 -5 7 0
5 -6 -8 0
-7 -6 -8 0
-2 -4 6 0
-6 -7 3 0
4 -5 3 0
-1 -8 -2 0
-4 10 -3 0
10 9 -6 0
-3 -7 1 0
-2 8 7 0
-1 -7 -8 0
-1 -2 5 0
1 -8 -2 0
5 6 -3 0
-7 5 3 0
-10 -2 1 0
3 -4 -8 0
-3 5 -10 0
-7 1 8 0
-10 8 2 0
1 5 3 0
